p cnf 771 2175
1 0
-2 0
-3 0
-4 0
-5 0
-6 0
-7 0
-8 0
-9 0
-10 0
-11 0
1 -12 0
12 -1 0
13 14 0
15 14 0
16 14 0
17 14 0
18 14 0
19 14 0
20 14 0
21 14 0
22 14 0
23 14 0
24 14 0
25 14 0
26 14 0
27 14 0
28 14 0
-29 0
-2 14 -30 0
2 -14 -30 0
30 -14 -2 0
2 14 30 0
-30 0
15 31 0
16 31 0
17 31 0
18 31 0
19 31 0
20 31 0
21 31 0
22 31 0
23 31 0
24 31 0
25 31 0
26 31 0
27 31 0
28 31 0
-32 0
-33 31 -34 0
33 -31 -34 0
34 -31 -33 0
33 31 34 0
-34 0
16 35 0
17 35 0
18 35 0
19 35 0
20 35 0
21 35 0
22 35 0
23 35 0
24 35 0
25 35 0
26 35 0
27 35 0
28 35 0
-36 0
-37 35 -38 0
37 -35 -38 0
38 -35 -37 0
37 35 38 0
-38 0
17 39 0
18 39 0
19 39 0
20 39 0
21 39 0
22 39 0
23 39 0
24 39 0
25 39 0
26 39 0
27 39 0
28 39 0
-40 0
-41 39 -42 0
41 -39 -42 0
42 -39 -41 0
41 39 42 0
-42 0
18 43 0
19 43 0
20 43 0
21 43 0
22 43 0
23 43 0
24 43 0
25 43 0
26 43 0
27 43 0
28 43 0
-44 0
-45 43 -46 0
45 -43 -46 0
46 -43 -45 0
45 43 46 0
-46 0
19 47 0
20 47 0
21 47 0
22 47 0
23 47 0
24 47 0
25 47 0
26 47 0
27 47 0
28 47 0
-48 0
-49 47 -50 0
49 -47 -50 0
50 -47 -49 0
49 47 50 0
-50 0
20 51 0
21 51 0
22 51 0
23 51 0
24 51 0
25 51 0
26 51 0
27 51 0
28 51 0
-52 0
-53 51 -54 0
53 -51 -54 0
54 -51 -53 0
53 51 54 0
-54 0
21 55 0
22 55 0
23 55 0
24 55 0
25 55 0
26 55 0
27 55 0
28 55 0
-56 0
-57 55 -58 0
57 -55 -58 0
58 -55 -57 0
57 55 58 0
-58 0
-59 55 -60 0
59 -55 -60 0
60 -55 -59 0
59 55 60 0
-60 0
23 61 0
24 61 0
25 61 0
26 61 0
27 61 0
28 61 0
21 61 0
22 61 0
-62 0
-63 61 -64 0
63 -61 -64 0
64 -61 -63 0
63 61 64 0
-64 0
-65 55 -66 0
65 -55 -66 0
66 -55 -65 0
65 55 66 0
-66 0
-67 55 -68 0
67 -55 -68 0
68 -55 -67 0
67 55 68 0
-68 0
-69 55 -70 0
69 -55 -70 0
70 -55 -69 0
69 55 70 0
-70 0
-71 55 -72 0
71 -55 -72 0
72 -55 -71 0
71 55 72 0
-72 0
-73 55 -74 0
73 -55 -74 0
74 -55 -73 0
73 55 74 0
-74 0
75 76 0
77 76 0
78 76 0
79 76 0
80 76 0
81 76 0
82 76 0
83 76 0
84 76 0
85 76 0
86 76 0
87 76 0
88 76 0
-89 0
-3 76 -90 0
3 -76 -90 0
90 -76 -3 0
3 76 90 0
-90 0
77 91 0
78 91 0
79 91 0
80 91 0
81 91 0
82 91 0
83 91 0
84 91 0
85 91 0
86 91 0
87 91 0
88 91 0
-92 0
-93 91 -94 0
93 -91 -94 0
94 -91 -93 0
93 91 94 0
-94 0
78 95 0
79 95 0
80 95 0
81 95 0
82 95 0
83 95 0
84 95 0
85 95 0
86 95 0
87 95 0
88 95 0
-96 0
-97 95 -98 0
97 -95 -98 0
98 -95 -97 0
97 95 98 0
-98 0
79 99 0
80 99 0
81 99 0
82 99 0
83 99 0
84 99 0
85 99 0
86 99 0
87 99 0
88 99 0
-100 0
-101 99 -102 0
101 -99 -102 0
102 -99 -101 0
101 99 102 0
-102 0
80 103 0
81 103 0
82 103 0
83 103 0
84 103 0
85 103 0
86 103 0
87 103 0
88 103 0
-104 0
-105 103 -106 0
105 -103 -106 0
106 -103 -105 0
105 103 106 0
-106 0
81 107 0
82 107 0
83 107 0
84 107 0
85 107 0
86 107 0
87 107 0
88 107 0
-108 0
-109 107 -110 0
109 -107 -110 0
110 -107 -109 0
109 107 110 0
-110 0
-111 107 -112 0
111 -107 -112 0
112 -107 -111 0
111 107 112 0
-112 0
-113 107 -114 0
113 -107 -114 0
114 -107 -113 0
113 107 114 0
-114 0
-115 107 -116 0
115 -107 -116 0
116 -107 -115 0
115 107 116 0
-116 0
-117 107 -118 0
117 -107 -118 0
118 -107 -117 0
117 107 118 0
-118 0
-119 107 -120 0
119 -107 -120 0
120 -107 -119 0
119 107 120 0
-120 0
-121 107 -122 0
121 -107 -122 0
122 -107 -121 0
121 107 122 0
-122 0
-123 107 -124 0
123 -107 -124 0
124 -107 -123 0
123 107 124 0
-124 0
125 126 0
127 126 0
128 126 0
129 126 0
130 126 0
131 126 0
132 126 0
133 126 0
134 126 0
135 126 0
136 126 0
137 126 0
138 126 0
139 126 0
-140 0
-4 126 -141 0
4 -126 -141 0
141 -126 -4 0
4 126 141 0
-141 0
127 142 0
128 142 0
129 142 0
130 142 0
131 142 0
132 142 0
133 142 0
134 142 0
135 142 0
136 142 0
137 142 0
138 142 0
139 142 0
-143 0
-144 142 -145 0
144 -142 -145 0
145 -142 -144 0
144 142 145 0
-145 0
128 146 0
129 146 0
130 146 0
131 146 0
132 146 0
133 146 0
134 146 0
135 146 0
136 146 0
137 146 0
138 146 0
139 146 0
-147 0
-148 146 -149 0
148 -146 -149 0
149 -146 -148 0
148 146 149 0
-149 0
129 150 0
130 150 0
131 150 0
132 150 0
133 150 0
134 150 0
135 150 0
136 150 0
137 150 0
138 150 0
139 150 0
-151 0
-152 150 -153 0
152 -150 -153 0
153 -150 -152 0
152 150 153 0
-153 0
130 154 0
131 154 0
132 154 0
133 154 0
134 154 0
135 154 0
136 154 0
137 154 0
138 154 0
139 154 0
-155 0
-156 154 -157 0
156 -154 -157 0
157 -154 -156 0
156 154 157 0
-157 0
131 158 0
132 158 0
133 158 0
134 158 0
135 158 0
136 158 0
137 158 0
138 158 0
139 158 0
-159 0
-160 158 -161 0
160 -158 -161 0
161 -158 -160 0
160 158 161 0
-161 0
132 162 0
133 162 0
134 162 0
135 162 0
136 162 0
137 162 0
138 162 0
139 162 0
-163 0
-164 162 -165 0
164 -162 -165 0
165 -162 -164 0
164 162 165 0
-165 0
133 166 0
134 166 0
135 166 0
136 166 0
137 166 0
138 166 0
139 166 0
-167 0
-168 166 -169 0
168 -166 -169 0
169 -166 -168 0
168 166 169 0
-169 0
134 170 0
135 170 0
136 170 0
137 170 0
138 170 0
139 170 0
-171 0
-172 170 -173 0
172 -170 -173 0
173 -170 -172 0
172 170 173 0
-173 0
-174 170 -175 0
174 -170 -175 0
175 -170 -174 0
174 170 175 0
-175 0
-176 170 -177 0
176 -170 -177 0
177 -170 -176 0
176 170 177 0
-177 0
-178 170 -179 0
178 -170 -179 0
179 -170 -178 0
178 170 179 0
-179 0
-180 170 -181 0
180 -170 -181 0
181 -170 -180 0
180 170 181 0
-181 0
-182 170 -183 0
182 -170 -183 0
183 -170 -182 0
182 170 183 0
-183 0
184 185 0
186 185 0
187 185 0
188 185 0
189 185 0
190 185 0
191 185 0
192 185 0
193 185 0
194 185 0
195 185 0
196 185 0
-197 0
-5 185 -198 0
5 -185 -198 0
198 -185 -5 0
5 185 198 0
-198 0
186 199 0
187 199 0
188 199 0
189 199 0
190 199 0
191 199 0
192 199 0
193 199 0
194 199 0
195 199 0
196 199 0
-200 0
-201 199 -202 0
201 -199 -202 0
202 -199 -201 0
201 199 202 0
-202 0
187 203 0
188 203 0
189 203 0
190 203 0
191 203 0
192 203 0
193 203 0
194 203 0
195 203 0
196 203 0
-204 0
-205 203 -206 0
205 -203 -206 0
206 -203 -205 0
205 203 206 0
-206 0
188 207 0
189 207 0
190 207 0
191 207 0
192 207 0
193 207 0
194 207 0
195 207 0
196 207 0
-208 0
-209 207 -210 0
209 -207 -210 0
210 -207 -209 0
209 207 210 0
-210 0
189 211 0
190 211 0
191 211 0
192 211 0
193 211 0
194 211 0
195 211 0
196 211 0
-212 0
-213 211 -214 0
213 -211 -214 0
214 -211 -213 0
213 211 214 0
-214 0
190 215 0
191 215 0
192 215 0
193 215 0
194 215 0
195 215 0
196 215 0
-216 0
-217 215 -218 0
217 -215 -218 0
218 -215 -217 0
217 215 218 0
-218 0
-219 215 -220 0
219 -215 -220 0
220 -215 -219 0
219 215 220 0
-220 0
-221 215 -222 0
221 -215 -222 0
222 -215 -221 0
221 215 222 0
-222 0
-223 215 -224 0
223 -215 -224 0
224 -215 -223 0
223 215 224 0
-224 0
-225 215 -226 0
225 -215 -226 0
226 -215 -225 0
225 215 226 0
-226 0
-227 215 -228 0
227 -215 -228 0
228 -215 -227 0
227 215 228 0
-228 0
-229 215 -230 0
229 -215 -230 0
230 -215 -229 0
229 215 230 0
-230 0
231 232 0
233 232 0
234 232 0
235 232 0
236 232 0
237 232 0
238 232 0
239 232 0
240 232 0
241 232 0
242 232 0
243 232 0
244 232 0
245 232 0
-246 0
-6 232 -247 0
6 -232 -247 0
247 -232 -6 0
6 232 247 0
-247 0
233 248 0
234 248 0
235 248 0
236 248 0
237 248 0
238 248 0
239 248 0
240 248 0
241 248 0
242 248 0
243 248 0
244 248 0
245 248 0
-249 0
-250 248 -251 0
250 -248 -251 0
251 -248 -250 0
250 248 251 0
-251 0
234 252 0
235 252 0
236 252 0
237 252 0
238 252 0
239 252 0
240 252 0
241 252 0
242 252 0
243 252 0
244 252 0
245 252 0
-253 0
-254 252 -255 0
254 -252 -255 0
255 -252 -254 0
254 252 255 0
-255 0
235 256 0
236 256 0
237 256 0
238 256 0
239 256 0
240 256 0
241 256 0
242 256 0
243 256 0
244 256 0
245 256 0
-257 0
-258 256 -259 0
258 -256 -259 0
259 -256 -258 0
258 256 259 0
-259 0
236 260 0
237 260 0
238 260 0
239 260 0
240 260 0
241 260 0
242 260 0
243 260 0
244 260 0
245 260 0
-261 0
-262 260 -263 0
262 -260 -263 0
263 -260 -262 0
262 260 263 0
-263 0
237 264 0
238 264 0
239 264 0
240 264 0
241 264 0
242 264 0
243 264 0
244 264 0
245 264 0
-265 0
-266 264 -267 0
266 -264 -267 0
267 -264 -266 0
266 264 267 0
-267 0
238 268 0
239 268 0
240 268 0
241 268 0
242 268 0
243 268 0
244 268 0
245 268 0
-269 0
-270 268 -271 0
270 -268 -271 0
271 -268 -270 0
270 268 271 0
-271 0
-272 268 -273 0
272 -268 -273 0
273 -268 -272 0
272 268 273 0
-273 0
-274 268 -275 0
274 -268 -275 0
275 -268 -274 0
274 268 275 0
-275 0
-276 268 -277 0
276 -268 -277 0
277 -268 -276 0
276 268 277 0
-277 0
-278 268 -279 0
278 -268 -279 0
279 -268 -278 0
278 268 279 0
-279 0
-280 268 -281 0
280 -268 -281 0
281 -268 -280 0
280 268 281 0
-281 0
-282 268 -283 0
282 -268 -283 0
283 -268 -282 0
282 268 283 0
-283 0
-284 268 -285 0
284 -268 -285 0
285 -268 -284 0
284 268 285 0
-285 0
286 287 0
288 287 0
289 287 0
290 287 0
291 287 0
292 287 0
293 287 0
294 287 0
295 287 0
296 287 0
297 287 0
298 287 0
299 287 0
-300 0
-7 287 -301 0
7 -287 -301 0
301 -287 -7 0
7 287 301 0
-301 0
288 302 0
289 302 0
290 302 0
291 302 0
292 302 0
293 302 0
294 302 0
295 302 0
296 302 0
297 302 0
298 302 0
299 302 0
-303 0
-304 302 -305 0
304 -302 -305 0
305 -302 -304 0
304 302 305 0
-305 0
289 306 0
290 306 0
291 306 0
292 306 0
293 306 0
294 306 0
295 306 0
296 306 0
297 306 0
298 306 0
299 306 0
-307 0
-308 306 -309 0
308 -306 -309 0
309 -306 -308 0
308 306 309 0
-309 0
290 310 0
291 310 0
292 310 0
293 310 0
294 310 0
295 310 0
296 310 0
297 310 0
298 310 0
299 310 0
-311 0
-312 310 -313 0
312 -310 -313 0
313 -310 -312 0
312 310 313 0
-313 0
291 314 0
292 314 0
293 314 0
294 314 0
295 314 0
296 314 0
297 314 0
298 314 0
299 314 0
-315 0
-316 314 -317 0
316 -314 -317 0
317 -314 -316 0
316 314 317 0
-317 0
292 318 0
293 318 0
294 318 0
295 318 0
296 318 0
297 318 0
298 318 0
299 318 0
-319 0
-320 318 -321 0
320 -318 -321 0
321 -318 -320 0
320 318 321 0
-321 0
293 322 0
294 322 0
295 322 0
296 322 0
297 322 0
298 322 0
299 322 0
-323 0
-324 322 -325 0
324 -322 -325 0
325 -322 -324 0
324 322 325 0
-325 0
-326 322 -327 0
326 -322 -327 0
327 -322 -326 0
326 322 327 0
-327 0
-328 322 -329 0
328 -322 -329 0
329 -322 -328 0
328 322 329 0
-329 0
-330 322 -331 0
330 -322 -331 0
331 -322 -330 0
330 322 331 0
-331 0
-332 322 -333 0
332 -322 -333 0
333 -322 -332 0
332 322 333 0
-333 0
-334 322 -335 0
334 -322 -335 0
335 -322 -334 0
334 322 335 0
-335 0
-336 322 -337 0
336 -322 -337 0
337 -322 -336 0
336 322 337 0
-337 0
81 338 0
82 338 0
83 338 0
84 338 0
85 338 0
86 338 0
87 338 0
88 338 0
339 338 0
340 338 0
341 338 0
342 338 0
343 338 0
344 338 0
345 338 0
-346 0
-8 338 -347 0
8 -338 -347 0
347 -338 -8 0
8 338 347 0
-347 0
81 348 0
82 348 0
83 348 0
84 348 0
85 348 0
86 348 0
87 348 0
88 348 0
340 348 0
341 348 0
342 348 0
343 348 0
344 348 0
345 348 0
-349 0
-350 348 -351 0
350 -348 -351 0
351 -348 -350 0
350 348 351 0
-351 0
81 352 0
82 352 0
83 352 0
84 352 0
85 352 0
86 352 0
87 352 0
88 352 0
341 352 0
342 352 0
343 352 0
344 352 0
345 352 0
-353 0
-354 352 -355 0
354 -352 -355 0
355 -352 -354 0
354 352 355 0
-355 0
81 356 0
82 356 0
83 356 0
84 356 0
85 356 0
86 356 0
87 356 0
88 356 0
342 356 0
343 356 0
344 356 0
345 356 0
-357 0
-358 356 -359 0
358 -356 -359 0
359 -356 -358 0
358 356 359 0
-359 0
81 360 0
82 360 0
83 360 0
84 360 0
85 360 0
86 360 0
87 360 0
88 360 0
343 360 0
344 360 0
345 360 0
-361 0
-362 360 -363 0
362 -360 -363 0
363 -360 -362 0
362 360 363 0
-363 0
81 364 0
82 364 0
83 364 0
84 364 0
85 364 0
86 364 0
87 364 0
88 364 0
344 364 0
345 364 0
-365 0
-366 364 -367 0
366 -364 -367 0
367 -364 -366 0
366 364 367 0
-367 0
81 368 0
82 368 0
83 368 0
84 368 0
85 368 0
86 368 0
87 368 0
88 368 0
345 368 0
-369 0
-370 368 -371 0
370 -368 -371 0
371 -368 -370 0
370 368 371 0
-371 0
372 373 0
374 373 0
375 373 0
376 373 0
377 373 0
378 373 0
379 373 0
380 373 0
381 373 0
382 373 0
-383 0
-9 373 -384 0
9 -373 -384 0
384 -373 -9 0
9 373 384 0
-384 0
374 385 0
375 385 0
376 385 0
377 385 0
378 385 0
379 385 0
380 385 0
381 385 0
382 385 0
-386 0
-387 385 -388 0
387 -385 -388 0
388 -385 -387 0
387 385 388 0
-388 0
375 389 0
376 389 0
377 389 0
378 389 0
379 389 0
380 389 0
381 389 0
382 389 0
-390 0
-391 389 -392 0
391 -389 -392 0
392 -389 -391 0
391 389 392 0
-392 0
376 393 0
377 393 0
378 393 0
379 393 0
380 393 0
381 393 0
382 393 0
-394 0
-395 393 -396 0
395 -393 -396 0
396 -393 -395 0
395 393 396 0
-396 0
377 397 0
378 397 0
379 397 0
380 397 0
381 397 0
382 397 0
-398 0
-399 397 -400 0
399 -397 -400 0
400 -397 -399 0
399 397 400 0
-400 0
-401 397 -402 0
401 -397 -402 0
402 -397 -401 0
401 397 402 0
-402 0
-403 397 -404 0
403 -397 -404 0
404 -397 -403 0
403 397 404 0
-404 0
-405 397 -406 0
405 -397 -406 0
406 -397 -405 0
405 397 406 0
-406 0
-407 397 -408 0
407 -397 -408 0
408 -397 -407 0
407 397 408 0
-408 0
-409 397 -410 0
409 -397 -410 0
410 -397 -409 0
409 397 410 0
-410 0
411 412 0
413 412 0
414 412 0
415 412 0
416 412 0
417 412 0
418 412 0
419 412 0
420 412 0
421 412 0
422 412 0
423 412 0
424 412 0
-425 0
-10 412 -426 0
10 -412 -426 0
426 -412 -10 0
10 412 426 0
-426 0
413 427 0
414 427 0
415 427 0
416 427 0
417 427 0
418 427 0
419 427 0
420 427 0
421 427 0
422 427 0
423 427 0
424 427 0
-428 0
-429 427 -430 0
429 -427 -430 0
430 -427 -429 0
429 427 430 0
-430 0
414 431 0
415 431 0
416 431 0
417 431 0
418 431 0
419 431 0
420 431 0
421 431 0
422 431 0
423 431 0
424 431 0
-432 0
-433 431 -434 0
433 -431 -434 0
434 -431 -433 0
433 431 434 0
-434 0
415 435 0
416 435 0
417 435 0
418 435 0
419 435 0
420 435 0
421 435 0
422 435 0
423 435 0
424 435 0
-436 0
-437 435 -438 0
437 -435 -438 0
438 -435 -437 0
437 435 438 0
-438 0
416 439 0
417 439 0
418 439 0
419 439 0
420 439 0
421 439 0
422 439 0
423 439 0
424 439 0
-440 0
-441 439 -442 0
441 -439 -442 0
442 -439 -441 0
441 439 442 0
-442 0
417 443 0
418 443 0
419 443 0
420 443 0
421 443 0
422 443 0
423 443 0
424 443 0
-444 0
-445 443 -446 0
445 -443 -446 0
446 -443 -445 0
445 443 446 0
-446 0
-447 443 -448 0
447 -443 -448 0
448 -443 -447 0
447 443 448 0
-448 0
-449 443 -450 0
449 -443 -450 0
450 -443 -449 0
449 443 450 0
-450 0
-451 443 -452 0
451 -443 -452 0
452 -443 -451 0
451 443 452 0
-452 0
-453 443 -454 0
453 -443 -454 0
454 -443 -453 0
453 443 454 0
-454 0
-455 443 -456 0
455 -443 -456 0
456 -443 -455 0
455 443 456 0
-456 0
-457 443 -458 0
457 -443 -458 0
458 -443 -457 0
457 443 458 0
-458 0
-459 443 -460 0
459 -443 -460 0
460 -443 -459 0
459 443 460 0
-460 0
461 462 0
463 462 0
464 462 0
465 462 0
466 462 0
467 462 0
468 462 0
469 462 0
470 462 0
471 462 0
472 462 0
473 462 0
474 462 0
-475 0
-11 462 -476 0
11 -462 -476 0
476 -462 -11 0
11 462 476 0
-476 0
463 477 0
464 477 0
465 477 0
466 477 0
467 477 0
468 477 0
469 477 0
470 477 0
471 477 0
472 477 0
473 477 0
474 477 0
-478 0
-479 477 -480 0
479 -477 -480 0
480 -477 -479 0
479 477 480 0
-480 0
464 481 0
465 481 0
466 481 0
467 481 0
468 481 0
469 481 0
470 481 0
471 481 0
472 481 0
473 481 0
474 481 0
-482 0
-483 481 -484 0
483 -481 -484 0
484 -481 -483 0
483 481 484 0
-484 0
465 485 0
466 485 0
467 485 0
468 485 0
469 485 0
470 485 0
471 485 0
472 485 0
473 485 0
474 485 0
-486 0
-487 485 -488 0
487 -485 -488 0
488 -485 -487 0
487 485 488 0
-488 0
466 489 0
467 489 0
468 489 0
469 489 0
470 489 0
471 489 0
472 489 0
473 489 0
474 489 0
-490 0
-491 489 -492 0
491 -489 -492 0
492 -489 -491 0
491 489 492 0
-492 0
467 493 0
468 493 0
469 493 0
470 493 0
471 493 0
472 493 0
473 493 0
474 493 0
-494 0
-495 493 -496 0
495 -493 -496 0
496 -493 -495 0
495 493 496 0
-496 0
468 497 0
469 497 0
470 497 0
471 497 0
472 497 0
473 497 0
474 497 0
-498 0
-499 497 -500 0
499 -497 -500 0
500 -497 -499 0
499 497 500 0
-500 0
-501 497 -502 0
501 -497 -502 0
502 -497 -501 0
501 497 502 0
-502 0
-503 497 -504 0
503 -497 -504 0
504 -497 -503 0
503 497 504 0
-504 0
-505 497 -506 0
505 -497 -506 0
506 -497 -505 0
505 497 506 0
-506 0
-507 497 -508 0
507 -497 -508 0
508 -497 -507 0
507 497 508 0
-508 0
-509 497 -510 0
509 -497 -510 0
510 -497 -509 0
509 497 510 0
-510 0
-511 497 -512 0
511 -497 -512 0
512 -497 -511 0
511 497 512 0
-512 0
-12 513 -514 0
12 -513 -514 0
-12 -513 514 0
12 513 514 0
-514 0
-13 515 -516 0
13 -515 -516 0
-13 -515 516 0
13 515 516 0
-516 0
-15 517 -518 0
15 -517 -518 0
-15 -517 518 0
15 517 518 0
-518 0
-16 519 -520 0
16 -519 -520 0
-16 -519 520 0
16 519 520 0
-520 0
-17 521 -522 0
17 -521 -522 0
-17 -521 522 0
17 521 522 0
-522 0
-18 523 -524 0
18 -523 -524 0
-18 -523 524 0
18 523 524 0
-524 0
-19 525 -526 0
19 -525 -526 0
-19 -525 526 0
19 525 526 0
-526 0
-20 527 -528 0
20 -527 -528 0
-20 -527 528 0
20 527 528 0
-528 0
-21 529 -530 0
21 -529 -530 0
-21 -529 530 0
21 529 530 0
-530 0
-22 531 -532 0
22 -531 -532 0
-22 -531 532 0
22 531 532 0
-532 0
-23 533 -534 0
23 -533 -534 0
-23 -533 534 0
23 533 534 0
-534 0
-24 535 -536 0
24 -535 -536 0
-24 -535 536 0
24 535 536 0
-536 0
-25 537 -538 0
25 -537 -538 0
-25 -537 538 0
25 537 538 0
-538 0
-26 539 -540 0
26 -539 -540 0
-26 -539 540 0
26 539 540 0
-540 0
-27 541 -542 0
27 -541 -542 0
-27 -541 542 0
27 541 542 0
-542 0
-28 543 -544 0
28 -543 -544 0
-28 -543 544 0
28 543 544 0
-544 0
-75 545 -546 0
75 -545 -546 0
-75 -545 546 0
75 545 546 0
-546 0
-77 547 -548 0
77 -547 -548 0
-77 -547 548 0
77 547 548 0
-548 0
-78 549 -550 0
78 -549 -550 0
-78 -549 550 0
78 549 550 0
-550 0
-79 551 -552 0
79 -551 -552 0
-79 -551 552 0
79 551 552 0
-552 0
-80 553 -554 0
80 -553 -554 0
-80 -553 554 0
80 553 554 0
-554 0
-81 555 -556 0
81 -555 -556 0
-81 -555 556 0
81 555 556 0
-556 0
-82 557 -558 0
82 -557 -558 0
-82 -557 558 0
82 557 558 0
-558 0
-83 559 -560 0
83 -559 -560 0
-83 -559 560 0
83 559 560 0
-560 0
-84 561 -562 0
84 -561 -562 0
-84 -561 562 0
84 561 562 0
-562 0
-85 563 -564 0
85 -563 -564 0
-85 -563 564 0
85 563 564 0
-564 0
-86 565 -566 0
86 -565 -566 0
-86 -565 566 0
86 565 566 0
-566 0
-87 567 -568 0
87 -567 -568 0
-87 -567 568 0
87 567 568 0
-568 0
-88 569 -570 0
88 -569 -570 0
-88 -569 570 0
88 569 570 0
-570 0
-125 571 -572 0
125 -571 -572 0
-125 -571 572 0
125 571 572 0
-572 0
-127 573 -574 0
127 -573 -574 0
-127 -573 574 0
127 573 574 0
-574 0
-128 575 -576 0
128 -575 -576 0
-128 -575 576 0
128 575 576 0
-576 0
-129 577 -578 0
129 -577 -578 0
-129 -577 578 0
129 577 578 0
-578 0
-130 579 -580 0
130 -579 -580 0
-130 -579 580 0
130 579 580 0
-580 0
-131 581 -582 0
131 -581 -582 0
-131 -581 582 0
131 581 582 0
-582 0
-132 583 -584 0
132 -583 -584 0
-132 -583 584 0
132 583 584 0
-584 0
-133 585 -586 0
133 -585 -586 0
-133 -585 586 0
133 585 586 0
-586 0
-134 587 -588 0
134 -587 -588 0
-134 -587 588 0
134 587 588 0
-588 0
-135 589 -590 0
135 -589 -590 0
-135 -589 590 0
135 589 590 0
-590 0
-136 591 -592 0
136 -591 -592 0
-136 -591 592 0
136 591 592 0
-592 0
-137 593 -594 0
137 -593 -594 0
-137 -593 594 0
137 593 594 0
-594 0
-138 595 -596 0
138 -595 -596 0
-138 -595 596 0
138 595 596 0
-596 0
-139 597 -598 0
139 -597 -598 0
-139 -597 598 0
139 597 598 0
-598 0
-184 599 -600 0
184 -599 -600 0
-184 -599 600 0
184 599 600 0
-600 0
-186 601 -602 0
186 -601 -602 0
-186 -601 602 0
186 601 602 0
-602 0
-187 603 -604 0
187 -603 -604 0
-187 -603 604 0
187 603 604 0
-604 0
-188 605 -606 0
188 -605 -606 0
-188 -605 606 0
188 605 606 0
-606 0
-189 607 -608 0
189 -607 -608 0
-189 -607 608 0
189 607 608 0
-608 0
-190 609 -610 0
190 -609 -610 0
-190 -609 610 0
190 609 610 0
-610 0
-191 611 -612 0
191 -611 -612 0
-191 -611 612 0
191 611 612 0
-612 0
-192 613 -614 0
192 -613 -614 0
-192 -613 614 0
192 613 614 0
-614 0
-193 615 -616 0
193 -615 -616 0
-193 -615 616 0
193 615 616 0
-616 0
-194 617 -618 0
194 -617 -618 0
-194 -617 618 0
194 617 618 0
-618 0
-195 619 -620 0
195 -619 -620 0
-195 -619 620 0
195 619 620 0
-620 0
-196 621 -622 0
196 -621 -622 0
-196 -621 622 0
196 621 622 0
-622 0
-231 623 -624 0
231 -623 -624 0
-231 -623 624 0
231 623 624 0
-624 0
-233 625 -626 0
233 -625 -626 0
-233 -625 626 0
233 625 626 0
-626 0
-234 627 -628 0
234 -627 -628 0
-234 -627 628 0
234 627 628 0
-628 0
-235 629 -630 0
235 -629 -630 0
-235 -629 630 0
235 629 630 0
-630 0
-236 631 -632 0
236 -631 -632 0
-236 -631 632 0
236 631 632 0
-632 0
-237 633 -634 0
237 -633 -634 0
-237 -633 634 0
237 633 634 0
-634 0
-238 635 -636 0
238 -635 -636 0
-238 -635 636 0
238 635 636 0
-636 0
-239 637 -638 0
239 -637 -638 0
-239 -637 638 0
239 637 638 0
-638 0
-240 639 -640 0
240 -639 -640 0
-240 -639 640 0
240 639 640 0
-640 0
-241 641 -642 0
241 -641 -642 0
-241 -641 642 0
241 641 642 0
-642 0
-242 643 -644 0
242 -643 -644 0
-242 -643 644 0
242 643 644 0
-644 0
-243 645 -646 0
243 -645 -646 0
-243 -645 646 0
243 645 646 0
-646 0
-244 647 -648 0
244 -647 -648 0
-244 -647 648 0
244 647 648 0
-648 0
-245 649 -650 0
245 -649 -650 0
-245 -649 650 0
245 649 650 0
-650 0
-286 651 -652 0
286 -651 -652 0
-286 -651 652 0
286 651 652 0
-652 0
-288 653 -654 0
288 -653 -654 0
-288 -653 654 0
288 653 654 0
-654 0
-289 655 -656 0
289 -655 -656 0
-289 -655 656 0
289 655 656 0
-656 0
-290 657 -658 0
290 -657 -658 0
-290 -657 658 0
290 657 658 0
-658 0
-291 659 -660 0
291 -659 -660 0
-291 -659 660 0
291 659 660 0
-660 0
-292 661 -662 0
292 -661 -662 0
-292 -661 662 0
292 661 662 0
-662 0
-293 663 -664 0
293 -663 -664 0
-293 -663 664 0
293 663 664 0
-664 0
-294 665 -666 0
294 -665 -666 0
-294 -665 666 0
294 665 666 0
-666 0
-295 667 -668 0
295 -667 -668 0
-295 -667 668 0
295 667 668 0
-668 0
-296 669 -670 0
296 -669 -670 0
-296 -669 670 0
296 669 670 0
-670 0
-297 671 -672 0
297 -671 -672 0
-297 -671 672 0
297 671 672 0
-672 0
-298 673 -674 0
298 -673 -674 0
-298 -673 674 0
298 673 674 0
-674 0
-299 675 -676 0
299 -675 -676 0
-299 -675 676 0
299 675 676 0
-676 0
-339 677 -678 0
339 -677 -678 0
-339 -677 678 0
339 677 678 0
-678 0
-340 679 -680 0
340 -679 -680 0
-340 -679 680 0
340 679 680 0
-680 0
-341 681 -682 0
341 -681 -682 0
-341 -681 682 0
341 681 682 0
-682 0
-342 683 -684 0
342 -683 -684 0
-342 -683 684 0
342 683 684 0
-684 0
-343 685 -686 0
343 -685 -686 0
-343 -685 686 0
343 685 686 0
-686 0
-344 687 -688 0
344 -687 -688 0
-344 -687 688 0
344 687 688 0
-688 0
-345 689 -690 0
345 -689 -690 0
-345 -689 690 0
345 689 690 0
-690 0
-372 691 -692 0
372 -691 -692 0
-372 -691 692 0
372 691 692 0
-692 0
-374 693 -694 0
374 -693 -694 0
-374 -693 694 0
374 693 694 0
-694 0
-375 695 -696 0
375 -695 -696 0
-375 -695 696 0
375 695 696 0
-696 0
-376 697 -698 0
376 -697 -698 0
-376 -697 698 0
376 697 698 0
-698 0
-377 699 -700 0
377 -699 -700 0
-377 -699 700 0
377 699 700 0
-700 0
-378 701 -702 0
378 -701 -702 0
-378 -701 702 0
378 701 702 0
-702 0
-379 703 -704 0
379 -703 -704 0
-379 -703 704 0
379 703 704 0
-704 0
-380 705 -706 0
380 -705 -706 0
-380 -705 706 0
380 705 706 0
-706 0
-381 707 -708 0
381 -707 -708 0
-381 -707 708 0
381 707 708 0
-708 0
-382 709 -710 0
382 -709 -710 0
-382 -709 710 0
382 709 710 0
-710 0
-411 711 -712 0
411 -711 -712 0
-411 -711 712 0
411 711 712 0
-712 0
-413 713 -714 0
413 -713 -714 0
-413 -713 714 0
413 713 714 0
-714 0
-414 715 -716 0
414 -715 -716 0
-414 -715 716 0
414 715 716 0
-716 0
-415 717 -718 0
415 -717 -718 0
-415 -717 718 0
415 717 718 0
-718 0
-416 719 -720 0
416 -719 -720 0
-416 -719 720 0
416 719 720 0
-720 0
-417 721 -722 0
417 -721 -722 0
-417 -721 722 0
417 721 722 0
-722 0
-418 723 -724 0
418 -723 -724 0
-418 -723 724 0
418 723 724 0
-724 0
-419 725 -726 0
419 -725 -726 0
-419 -725 726 0
419 725 726 0
-726 0
-420 727 -728 0
420 -727 -728 0
-420 -727 728 0
420 727 728 0
-728 0
-421 729 -730 0
421 -729 -730 0
-421 -729 730 0
421 729 730 0
-730 0
-422 731 -732 0
422 -731 -732 0
-422 -731 732 0
422 731 732 0
-732 0
-423 733 -734 0
423 -733 -734 0
-423 -733 734 0
423 733 734 0
-734 0
-424 735 -736 0
424 -735 -736 0
-424 -735 736 0
424 735 736 0
-736 0
-461 737 -738 0
461 -737 -738 0
-461 -737 738 0
461 737 738 0
-738 0
-463 739 -740 0
463 -739 -740 0
-463 -739 740 0
463 739 740 0
-740 0
-464 741 -742 0
464 -741 -742 0
-464 -741 742 0
464 741 742 0
-742 0
-465 743 -744 0
465 -743 -744 0
-465 -743 744 0
465 743 744 0
-744 0
-466 745 -746 0
466 -745 -746 0
-466 -745 746 0
466 745 746 0
-746 0
-467 747 -748 0
467 -747 -748 0
-467 -747 748 0
467 747 748 0
-748 0
-468 749 -750 0
468 -749 -750 0
-468 -749 750 0
468 749 750 0
-750 0
-469 751 -752 0
469 -751 -752 0
-469 -751 752 0
469 751 752 0
-752 0
-470 753 -754 0
470 -753 -754 0
-470 -753 754 0
470 753 754 0
-754 0
-471 755 -756 0
471 -755 -756 0
-471 -755 756 0
471 755 756 0
-756 0
-472 757 -758 0
472 -757 -758 0
-472 -757 758 0
472 757 758 0
-758 0
-473 759 -760 0
473 -759 -760 0
-473 -759 760 0
473 759 760 0
-760 0
-474 761 -762 0
474 -761 -762 0
-474 -761 762 0
474 761 762 0
-762 0
-763 -513 0
515 -763 0
517 -763 0
-763 -519 0
-763 -521 0
-763 -523 0
525 -763 0
-763 -527 0
-763 -529 0
531 -763 0
-763 -533 0
-763 -535 0
537 -763 0
539 -763 0
-763 -541 0
543 -763 0
-763 -545 0
-763 -547 0
-763 -549 0
551 -763 0
553 -763 0
555 -763 0
557 -763 0
559 -763 0
561 -763 0
-763 -563 0
-763 -565 0
567 -763 0
-763 -569 0
-763 -571 0
573 -763 0
-763 -575 0
-763 -577 0
579 -763 0
581 -763 0
-763 -583 0
585 -763 0
587 -763 0
589 -763 0
-763 -591 0
-763 -593 0
-763 -595 0
-763 -597 0
-763 -599 0
-763 -601 0
-763 -603 0
605 -763 0
607 -763 0
-763 -609 0
611 -763 0
613 -763 0
-763 -615 0
-763 -617 0
619 -763 0
-763 -621 0
-763 -623 0
-763 -625 0
-763 -627 0
-763 -629 0
631 -763 0
633 -763 0
-763 -635 0
637 -763 0
-763 -639 0
641 -763 0
643 -763 0
645 -763 0
-763 -647 0
-763 -649 0
651 -763 0
653 -763 0
655 -763 0
-763 -657 0
-763 -659 0
661 -763 0
663 -763 0
-763 -665 0
667 -763 0
-763 -669 0
-763 -671 0
673 -763 0
-763 -675 0
677 -763 0
679 -763 0
681 -763 0
683 -763 0
685 -763 0
687 -763 0
-763 -689 0
-763 -691 0
693 -763 0
695 -763 0
697 -763 0
699 -763 0
-763 -701 0
-763 -703 0
-763 -705 0
-763 -707 0
-763 -709 0
711 -763 0
-763 -713 0
-763 -715 0
717 -763 0
-763 -719 0
721 -763 0
723 -763 0
725 -763 0
-763 -727 0
729 -763 0
731 -763 0
733 -763 0
735 -763 0
737 -763 0
-763 -739 0
-763 -741 0
743 -763 0
-763 -745 0
-763 -747 0
-763 -749 0
751 -763 0
-763 -753 0
-763 -755 0
-763 -757 0
759 -763 0
761 -763 0
763 0
-764 0
-765 0
-766 0
-767 0
-768 0
-769 0
-770 0
-771 0
